p edge 604 2268
e 1 2
e 1 3
e 1 4
e 1 5
e 1 6
e 1 7
e 1 8
e 1 9
e 1 10
e 1 11
e 1 12
e 1 13
e 1 14
e 1 15
e 1 508
e 1 603
e 1 604
e 1 509
e 1 510
e 2 16
e 2 17
e 2 18
e 2 588
e 2 589
e 2 515
e 2 516
e 3 94
e 3 12
e 3 21
e 3 11
e 3 507
e 4 299
e 4 63
e 4 294
e 4 603
e 5 284
e 5 94
e 5 12
e 5 21
e 5 507
e 6 94
e 6 12
e 6 21
e 6 11
e 6 508
e 6 509
e 7 75
e 7 88
e 7 98
e 7 50
e 7 51
e 7 96
e 7 99
e 7 100
e 7 95
e 7 21
e 7 89
e 7 20
e 7 11
e 7 93
e 7 101
e 7 92
e 7 91
e 7 102
e 7 103
e 7 104
e 7 105
e 7 97
e 7 507
e 7 536
e 7 575
e 8 94
e 8 12
e 8 21
e 8 507
e 9 299
e 9 63
e 9 294
e 9 603
e 10 21
e 10 507
e 11 87
e 11 286
e 11 293
e 11 296
e 11 12
e 11 507
e 12 283
e 12 20
e 12 21
e 12 332
e 12 13
e 12 14
e 12 576
e 12 513
e 12 510
e 13 507
e 14 94
e 14 21
e 14 507
e 15 24
e 15 45
e 15 25
e 15 26
e 15 28
e 15 29
e 15 30
e 15 33
e 15 136
e 15 157
e 15 338
e 15 339
e 15 336
e 15 35
e 15 38
e 15 37
e 15 39
e 15 46
e 15 41
e 15 42
e 15 43
e 15 44
e 15 571
e 15 598
e 16 17
e 16 19
e 16 588
e 17 18
e 17 20
e 17 21
e 17 588
e 17 589
e 17 515
e 18 285
e 18 602
e 19 300
e 19 301
e 19 303
e 19 304
e 19 305
e 19 306
e 19 307
e 19 308
e 19 309
e 19 311
e 19 312
e 19 327
e 19 315
e 19 328
e 19 316
e 19 313
e 19 319
e 19 322
e 19 324
e 19 325
e 19 326
e 19 514
e 19 599
e 20 296
e 20 94
e 20 21
e 20 507
e 21 277
e 21 283
e 21 332
e 21 576
e 21 508
e 21 510
e 22 23
e 22 570
e 22 578
e 23 570
e 24 25
e 24 26
e 24 27
e 24 28
e 24 29
e 24 30
e 24 31
e 24 32
e 24 33
e 24 34
e 24 35
e 24 36
e 24 37
e 24 38
e 24 39
e 24 40
e 24 41
e 24 42
e 24 43
e 24 44
e 24 547
e 24 585
e 25 32
e 25 35
e 25 46
e 25 42
e 25 572
e 26 32
e 26 35
e 26 46
e 26 42
e 26 572
e 27 75
e 27 98
e 27 129
e 27 112
e 27 99
e 27 241
e 27 161
e 27 147
e 27 153
e 27 353
e 27 150
e 27 561
e 27 585
e 27 586
e 27 587
e 28 32
e 28 35
e 28 36
e 28 46
e 28 42
e 28 572
e 29 32
e 29 35
e 29 46
e 29 42
e 29 572
e 30 32
e 30 35
e 30 36
e 30 46
e 30 42
e 30 572
e 32 45
e 32 112
e 32 254
e 32 333
e 32 334
e 32 335
e 32 33
e 32 157
e 32 336
e 32 35
e 32 38
e 32 37
e 32 39
e 32 176
e 32 41
e 32 34
e 32 43
e 32 337
e 32 44
e 32 571
e 32 572
e 32 599
e 33 112
e 33 334
e 33 157
e 33 36
e 33 176
e 33 38
e 33 39
e 33 571
e 33 572
e 34 35
e 34 46
e 34 42
e 34 572
e 35 112
e 35 334
e 35 333
e 35 336
e 35 335
e 35 38
e 35 37
e 35 39
e 35 176
e 35 41
e 35 42
e 35 43
e 35 337
e 35 44
e 35 572
e 35 598
e 36 98
e 36 112
e 36 334
e 36 295
e 36 333
e 36 335
e 36 158
e 36 336
e 36 38
e 36 37
e 36 39
e 36 176
e 36 46
e 36 41
e 36 43
e 36 337
e 36 44
e 36 571
e 36 572
e 36 598
e 36 515
e 37 46
e 37 497
e 37 42
e 37 572
e 38 99
e 38 46
e 38 42
e 38 572
e 39 46
e 39 42
e 39 514
e 39 572
e 41 46
e 41 42
e 41 572
e 42 44
e 42 43
e 43 572
e 44 46
e 44 572
e 45 46
e 46 338
e 46 339
e 46 571
e 47 48
e 47 49
e 47 50
e 47 51
e 47 52
e 47 53
e 47 54
e 47 55
e 47 56
e 47 57
e 47 58
e 47 59
e 47 60
e 47 61
e 47 62
e 47 63
e 47 64
e 47 65
e 47 66
e 47 67
e 47 68
e 47 69
e 47 70
e 47 71
e 47 72
e 47 73
e 47 74
e 47 536
e 47 587
e 47 600
e 48 75
e 48 340
e 48 541
e 48 573
e 48 585
e 49 75
e 49 340
e 49 541
e 49 573
e 50 87
e 50 106
e 50 108
e 50 110
e 50 111
e 50 129
e 50 130
e 50 53
e 50 131
e 50 132
e 50 113
e 50 133
e 50 116
e 50 109
e 50 117
e 50 118
e 50 119
e 50 120
e 50 121
e 50 67
e 50 122
e 50 123
e 50 134
e 50 83
e 50 114
e 50 124
e 50 125
e 50 126
e 50 127
e 50 115
e 50 128
e 50 537
e 50 538
e 51 106
e 51 130
e 51 134
e 51 109
e 51 111
e 51 129
e 51 135
e 51 136
e 51 53
e 51 517
e 51 537
e 52 75
e 52 340
e 52 541
e 52 573
e 53 75
e 53 98
e 53 192
e 53 195
e 53 77
e 53 196
e 53 197
e 53 198
e 53 199
e 53 200
e 53 201
e 53 202
e 53 203
e 53 204
e 53 84
e 53 85
e 53 205
e 53 206
e 53 207
e 53 536
e 53 585
e 53 555
e 53 551
e 54 192
e 54 258
e 54 136
e 54 259
e 54 260
e 54 78
e 54 261
e 54 263
e 54 371
e 54 79
e 54 81
e 54 266
e 54 268
e 54 373
e 54 271
e 54 372
e 54 374
e 54 273
e 54 274
e 54 275
e 54 543
e 54 569
e 54 509
e 55 75
e 55 340
e 55 157
e 55 541
e 55 573
e 56 75
e 56 340
e 56 541
e 56 573
e 57 75
e 57 340
e 57 541
e 57 573
e 58 75
e 58 340
e 58 541
e 58 573
e 59 75
e 59 340
e 59 541
e 60 75
e 60 65
e 61 192
e 61 259
e 61 78
e 61 261
e 61 262
e 61 263
e 61 371
e 61 79
e 61 81
e 61 266
e 61 268
e 61 269
e 61 372
e 61 272
e 61 273
e 61 275
e 61 373
e 61 543
e 61 569
e 61 546
e 61 509
e 62 75
e 62 340
e 62 541
e 62 573
e 63 192
e 63 259
e 63 260
e 63 78
e 63 261
e 63 262
e 63 263
e 63 371
e 63 375
e 63 79
e 63 376
e 63 377
e 63 81
e 63 266
e 63 268
e 63 275
e 63 269
e 63 378
e 63 379
e 63 82
e 63 372
e 63 380
e 63 272
e 63 374
e 63 273
e 63 274
e 63 373
e 63 543
e 63 569
e 63 553
e 63 554
e 63 555
e 63 551
e 63 556
e 63 603
e 63 604
e 63 509
e 64 75
e 64 192
e 64 193
e 64 259
e 64 260
e 64 78
e 64 261
e 64 262
e 64 269
e 64 263
e 64 371
e 64 375
e 64 79
e 64 81
e 64 266
e 64 268
e 64 203
e 64 378
e 64 82
e 64 373
e 64 379
e 64 372
e 64 374
e 64 273
e 64 274
e 64 275
e 64 543
e 64 569
e 64 585
e 64 509
e 65 75
e 65 80
e 65 390
e 65 541
e 65 573
e 66 75
e 66 340
e 66 541
e 66 573
e 67 98
e 67 99
e 67 107
e 67 108
e 67 109
e 67 110
e 67 111
e 67 392
e 67 113
e 67 114
e 67 116
e 67 117
e 67 118
e 67 119
e 67 120
e 67 121
e 67 122
e 67 123
e 67 388
e 67 83
e 67 134
e 67 125
e 67 126
e 67 115
e 67 128
e 67 541
e 67 576
e 67 563
e 67 509
e 68 75
e 68 340
e 68 541
e 68 573
e 69 75
e 69 341
e 69 76
e 71 75
e 71 340
e 71 541
e 71 573
e 72 75
e 72 340
e 72 541
e 72 573
e 73 75
e 73 340
e 73 541
e 73 573
e 74 75
e 74 340
e 74 541
e 74 573
e 74 585
e 75 76
e 75 77
e 75 78
e 75 79
e 75 80
e 75 81
e 75 82
e 75 83
e 75 84
e 75 85
e 75 547
e 75 585
e 75 586
e 75 594
e 75 587
e 75 600
e 76 340
e 77 131
e 77 132
e 77 361
e 77 198
e 77 397
e 77 210
e 77 203
e 77 200
e 77 553
e 77 554
e 77 555
e 77 551
e 77 556
e 78 258
e 78 269
e 78 544
e 78 545
e 78 546
e 79 258
e 79 269
e 79 492
e 79 544
e 79 545
e 79 546
e 80 541
e 80 573
e 81 258
e 81 269
e 81 544
e 81 545
e 81 546
e 82 258
e 82 266
e 82 544
e 82 545
e 82 546
e 83 98
e 83 135
e 83 136
e 83 134
e 83 536
e 83 561
e 83 562
e 83 538
e 84 131
e 84 132
e 85 131
e 85 132
e 85 397
e 85 402
e 85 415
e 85 362
e 85 364
e 85 365
e 85 416
e 85 546
e 86 570
e 86 574
e 87 88
e 87 89
e 87 90
e 87 91
e 87 92
e 87 93
e 87 94
e 87 95
e 87 96
e 87 97
e 87 576
e 88 575
e 88 576
e 89 576
e 90 575
e 91 575
e 91 576
e 91 555
e 92 575
e 92 576
e 94 283
e 94 332
e 94 575
e 94 576
e 94 513
e 94 512
e 94 508
e 94 510
e 95 575
e 95 576
e 97 575
e 97 576
e 98 106
e 98 107
e 98 108
e 98 109
e 98 110
e 98 111
e 98 112
e 98 99
e 98 113
e 98 114
e 98 115
e 98 116
e 98 117
e 98 118
e 98 119
e 98 120
e 98 121
e 98 122
e 98 123
e 98 124
e 98 101
e 98 125
e 98 126
e 98 127
e 98 128
e 98 537
e 98 576
e 98 538
e 98 508
e 99 106
e 99 108
e 99 147
e 99 165
e 99 149
e 99 160
e 99 150
e 99 151
e 99 167
e 99 153
e 99 154
e 99 136
e 99 157
e 99 158
e 99 119
e 99 161
e 99 174
e 99 162
e 99 176
e 99 168
e 99 156
e 99 171
e 99 172
e 99 547
e 99 561
e 100 576
e 101 575
e 101 576
e 105 576
e 106 130
e 106 536
e 107 393
e 107 130
e 107 562
e 108 135
e 108 136
e 108 391
e 108 393
e 108 134
e 108 517
e 108 561
e 108 562
e 108 538
e 109 393
e 109 536
e 109 562
e 110 135
e 110 136
e 110 393
e 110 134
e 110 504
e 110 536
e 110 561
e 110 562
e 110 538
e 111 393
e 111 536
e 111 562
e 112 147
e 112 148
e 112 165
e 112 175
e 112 149
e 112 150
e 112 151
e 112 167
e 112 152
e 112 153
e 112 154
e 112 155
e 112 158
e 112 159
e 112 160
e 112 161
e 112 169
e 112 174
e 112 166
e 112 162
e 112 168
e 112 156
e 112 170
e 112 171
e 112 172
e 112 173
e 112 528
e 112 561
e 112 585
e 113 135
e 113 136
e 113 393
e 113 134
e 113 536
e 113 561
e 113 562
e 113 538
e 114 135
e 114 136
e 114 393
e 114 134
e 114 536
e 114 562
e 114 538
e 115 135
e 115 136
e 115 134
e 115 536
e 115 561
e 115 562
e 115 538
e 116 135
e 116 136
e 116 393
e 116 134
e 116 561
e 116 562
e 116 538
e 117 135
e 117 136
e 117 134
e 117 561
e 117 562
e 117 538
e 118 135
e 118 136
e 118 393
e 118 134
e 118 471
e 118 536
e 118 561
e 118 562
e 118 538
e 119 135
e 119 136
e 119 393
e 119 134
e 119 536
e 119 561
e 119 562
e 119 538
e 120 135
e 120 136
e 120 393
e 120 134
e 120 488
e 120 536
e 120 561
e 120 562
e 120 538
e 121 135
e 121 136
e 121 134
e 121 536
e 121 561
e 121 562
e 121 538
e 122 135
e 122 136
e 122 393
e 122 134
e 122 561
e 122 538
e 123 135
e 123 136
e 123 134
e 123 536
e 123 561
e 123 562
e 123 538
e 124 135
e 125 135
e 125 136
e 125 393
e 125 134
e 125 536
e 125 561
e 125 562
e 125 538
e 126 135
e 126 136
e 126 134
e 126 536
e 126 561
e 126 562
e 126 538
e 127 135
e 127 136
e 127 134
e 127 562
e 127 538
e 128 135
e 128 136
e 128 393
e 128 134
e 128 536
e 128 561
e 128 562
e 128 538
e 129 147
e 129 148
e 129 149
e 129 150
e 129 151
e 129 152
e 129 153
e 129 154
e 129 155
e 129 156
e 129 157
e 129 158
e 129 159
e 129 160
e 129 161
e 129 162
e 129 163
e 129 164
e 129 165
e 129 166
e 129 167
e 129 168
e 129 169
e 129 170
e 129 171
e 129 172
e 129 173
e 129 174
e 129 528
e 129 536
e 129 585
e 130 393
e 131 192
e 131 193
e 131 198
e 131 199
e 131 208
e 131 201
e 131 206
e 131 195
e 131 196
e 131 197
e 131 203
e 131 204
e 131 207
e 131 551
e 132 192
e 132 198
e 132 196
e 132 206
e 132 195
e 132 207
e 132 209
e 132 210
e 132 203
e 132 204
e 132 197
e 132 551
e 133 393
e 133 536
e 133 562
e 134 164
e 134 421
e 134 414
e 134 529
e 134 563
e 135 342
e 135 157
e 135 343
e 135 517
e 135 538
e 135 590
e 135 586
e 135 554
e 135 513
e 135 512
e 135 508
e 136 344
e 136 342
e 136 157
e 136 203
e 136 345
e 136 489
e 136 517
e 136 548
e 136 575
e 136 561
e 136 562
e 136 538
e 136 585
e 136 586
e 136 553
e 136 554
e 136 555
e 136 551
e 136 556
e 136 508
e 137 138
e 137 566
e 138 139
e 138 583
e 138 584
e 138 578
e 139 140
e 139 577
e 139 580
e 139 566
e 139 582
e 140 329
e 140 579
e 141 142
e 141 143
e 142 188
e 142 189
e 142 190
e 142 574
e 142 582
e 142 592
e 142 593
e 143 550
e 143 567
e 143 568
e 143 574
e 143 566
e 143 582
e 143 593
e 144 145
e 144 146
e 144 583
e 144 584
e 144 596
e 145 583
e 146 583
e 146 584
e 147 157
e 147 163
e 147 164
e 147 529
e 147 585
e 148 157
e 148 164
e 148 529
e 149 585
e 150 157
e 150 163
e 150 164
e 150 158
e 150 529
e 150 585
e 152 157
e 152 163
e 152 164
e 152 529
e 153 157
e 153 163
e 153 164
e 153 373
e 153 529
e 153 585
e 154 157
e 154 163
e 154 164
e 154 529
e 155 157
e 155 163
e 155 164
e 155 529
e 155 541
e 155 585
e 156 157
e 156 163
e 156 164
e 156 529
e 156 541
e 156 585
e 157 334
e 157 165
e 157 346
e 157 347
e 157 158
e 157 348
e 157 159
e 157 160
e 157 161
e 157 169
e 157 174
e 157 166
e 157 349
e 157 167
e 157 168
e 157 350
e 157 170
e 157 171
e 157 351
e 157 352
e 157 172
e 157 173
e 157 353
e 157 528
e 157 542
e 157 573
e 157 585
e 157 603
e 158 163
e 158 164
e 158 487
e 158 529
e 158 585
e 159 163
e 159 164
e 159 529
e 159 585
e 160 163
e 160 164
e 160 472
e 160 473
e 160 529
e 160 585
e 160 555
e 161 163
e 161 164
e 161 529
e 161 585
e 162 522
e 162 585
e 163 165
e 163 166
e 163 167
e 163 168
e 163 171
e 163 237
e 163 394
e 163 370
e 163 172
e 163 173
e 163 528
e 164 211
e 164 220
e 164 355
e 164 165
e 164 169
e 164 166
e 164 167
e 164 168
e 164 170
e 164 171
e 164 394
e 164 172
e 164 173
e 164 517
e 164 528
e 164 571
e 164 572
e 165 529
e 165 585
e 166 529
e 166 585
e 167 529
e 167 585
e 168 529
e 168 585
e 169 529
e 169 585
e 170 529
e 171 529
e 171 585
e 172 491
e 172 529
e 172 585
e 173 502
e 173 529
e 173 585
e 174 220
e 174 394
e 175 177
e 175 178
e 175 179
e 175 180
e 175 181
e 175 182
e 175 183
e 175 184
e 175 185
e 175 186
e 175 187
e 175 590
e 175 558
e 176 293
e 176 408
e 176 291
e 176 302
e 176 409
e 176 410
e 176 411
e 176 412
e 176 413
e 176 304
e 176 603
e 176 604
e 176 509
e 176 515
e 177 355
e 177 348
e 177 585
e 177 586
e 177 558
e 178 355
e 178 348
e 178 586
e 179 355
e 179 348
e 179 586
e 180 355
e 180 348
e 180 586
e 182 586
e 183 355
e 183 348
e 183 586
e 184 355
e 184 348
e 184 586
e 185 355
e 185 348
e 185 467
e 185 586
e 186 355
e 186 348
e 186 586
e 187 355
e 187 348
e 187 586
e 189 566
e 190 566
e 191 591
e 192 580
e 192 593
e 193 577
e 193 580
e 193 592
e 193 593
e 194 578
e 195 361
e 195 198
e 195 397
e 195 210
e 195 203
e 195 480
e 195 553
e 195 554
e 195 555
e 195 551
e 195 556
e 196 361
e 196 198
e 196 397
e 196 210
e 196 203
e 196 200
e 196 553
e 196 554
e 196 555
e 196 551
e 196 556
e 197 361
e 197 198
e 197 397
e 197 210
e 197 203
e 197 200
e 197 553
e 197 554
e 197 555
e 197 551
e 197 556
e 198 362
e 198 364
e 198 365
e 198 207
e 198 203
e 198 206
e 198 553
e 198 554
e 198 555
e 198 551
e 198 556
e 199 203
e 199 553
e 199 554
e 199 555
e 199 551
e 199 556
e 200 361
e 200 395
e 200 553
e 201 361
e 201 395
e 201 397
e 201 210
e 201 203
e 201 457
e 201 553
e 201 554
e 201 555
e 201 551
e 201 556
e 202 554
e 203 299
e 203 399
e 203 206
e 203 398
e 203 207
e 203 400
e 203 401
e 203 209
e 205 415
e 206 361
e 206 395
e 206 397
e 206 210
e 206 363
e 206 553
e 206 554
e 206 555
e 206 551
e 206 556
e 207 361
e 207 395
e 207 397
e 207 210
e 207 553
e 207 554
e 207 555
e 207 551
e 207 556
e 209 395
e 209 210
e 209 402
e 209 244
e 209 415
e 209 398
e 209 553
e 209 554
e 209 555
e 209 551
e 209 556
e 210 241
e 211 212
e 211 213
e 211 214
e 211 215
e 211 216
e 211 217
e 211 218
e 211 219
e 212 221
e 212 213
e 212 216
e 212 367
e 212 224
e 212 222
e 212 217
e 212 368
e 212 223
e 212 541
e 212 573
e 212 595
e 213 220
e 213 496
e 213 594
e 213 587
e 214 220
e 214 215
e 214 594
e 214 595
e 214 587
e 215 220
e 215 594
e 215 595
e 215 587
e 216 220
e 216 594
e 216 587
e 217 220
e 217 585
e 217 594
e 217 587
e 218 220
e 218 594
e 218 595
e 218 587
e 219 220
e 219 594
e 219 595
e 219 587
e 220 221
e 220 222
e 220 223
e 220 224
e 220 529
e 220 595
e 221 594
e 221 587
e 222 594
e 222 587
e 223 594
e 223 587
e 224 594
e 224 587
e 225 226
e 225 566
e 225 582
e 225 591
e 225 596
e 227 228
e 227 229
e 227 230
e 227 231
e 227 232
e 227 233
e 227 234
e 227 235
e 227 236
e 227 237
e 227 238
e 227 239
e 227 240
e 227 241
e 227 242
e 227 243
e 227 244
e 227 245
e 227 246
e 227 247
e 227 248
e 227 249
e 227 250
e 227 251
e 227 252
e 227 253
e 227 530
e 227 537
e 227 558
e 228 241
e 228 402
e 228 558
e 229 241
e 229 402
e 229 558
e 230 241
e 230 402
e 230 558
e 231 241
e 231 402
e 231 558
e 232 241
e 232 402
e 232 558
e 235 241
e 235 402
e 235 558
e 237 444
e 237 426
e 237 427
e 237 428
e 237 430
e 237 429
e 237 431
e 237 417
e 237 358
e 237 432
e 237 433
e 237 434
e 237 435
e 238 270
e 238 404
e 238 405
e 238 406
e 238 407
e 238 545
e 239 241
e 239 402
e 239 558
e 240 241
e 240 402
e 240 558
e 241 369
e 241 252
e 241 242
e 241 243
e 241 245
e 241 246
e 241 247
e 241 248
e 241 250
e 241 370
e 241 251
e 241 253
e 241 585
e 242 402
e 242 558
e 243 402
e 243 474
e 243 558
e 244 354
e 244 381
e 245 402
e 245 558
e 246 402
e 246 558
e 247 402
e 247 558
e 248 402
e 248 558
e 250 402
e 250 558
e 251 402
e 251 558
e 252 402
e 252 558
e 253 558
e 254 255
e 254 256
e 254 257
e 254 598
e 254 599
e 255 597
e 255 598
e 255 599
e 256 599
e 257 597
e 257 598
e 257 599
e 258 259
e 258 260
e 258 261
e 258 262
e 258 263
e 258 264
e 258 265
e 258 266
e 258 267
e 258 268
e 258 269
e 258 270
e 258 271
e 258 272
e 258 273
e 258 274
e 258 275
e 258 276
e 258 541
e 259 447
e 259 446
e 259 445
e 259 448
e 259 449
e 259 450
e 259 451
e 259 452
e 259 453
e 259 544
e 259 545
e 259 546
e 260 269
e 260 544
e 260 545
e 260 546
e 261 447
e 261 446
e 261 453
e 261 450
e 261 449
e 261 445
e 261 451
e 261 448
e 261 452
e 261 544
e 261 545
e 261 546
e 262 447
e 262 446
e 262 445
e 262 448
e 262 449
e 262 450
e 262 451
e 262 452
e 262 453
e 262 544
e 262 545
e 262 546
e 263 269
e 263 544
e 263 545
e 263 546
e 264 270
e 266 375
e 266 268
e 266 372
e 266 544
e 266 545
e 266 546
e 267 518
e 268 544
e 268 545
e 268 546
e 269 273
e 269 378
e 269 544
e 269 545
e 269 546
e 270 271
e 270 418
e 270 419
e 270 420
e 270 544
e 270 545
e 270 546
e 271 340
e 271 440
e 271 544
e 271 545
e 271 546
e 272 440
e 272 546
e 273 544
e 273 545
e 273 546
e 274 445
e 274 446
e 274 447
e 274 448
e 274 449
e 274 450
e 274 451
e 274 452
e 274 453
e 274 544
e 274 545
e 274 546
e 275 445
e 275 446
e 275 447
e 275 448
e 275 449
e 275 450
e 275 451
e 275 452
e 275 453
e 275 544
e 275 545
e 275 546
e 276 445
e 276 446
e 276 449
e 276 447
e 276 448
e 276 450
e 276 451
e 276 452
e 276 453
e 277 278
e 277 279
e 277 280
e 277 281
e 277 282
e 277 511
e 277 548
e 277 586
e 278 283
e 278 513
e 278 508
e 279 283
e 279 508
e 280 548
e 280 549
e 280 513
e 280 508
e 281 283
e 281 512
e 281 508
e 282 283
e 282 513
e 282 512
e 282 508
e 283 284
e 283 531
e 283 549
e 283 590
e 283 586
e 284 332
e 284 576
e 284 513
e 286 287
e 286 288
e 286 289
e 286 290
e 286 291
e 286 292
e 287 293
e 287 296
e 287 408
e 287 302
e 287 409
e 287 411
e 288 603
e 289 293
e 289 296
e 290 293
e 290 296
e 290 294
e 290 295
e 291 293
e 291 296
e 292 293
e 292 296
e 292 603
e 292 604
e 292 509
e 293 294
e 293 295
e 294 389
e 295 299
e 295 321
e 295 389
e 295 571
e 295 572
e 295 604
e 296 297
e 296 298
e 299 300
e 299 301
e 299 302
e 299 303
e 299 304
e 299 305
e 299 306
e 299 307
e 299 308
e 299 309
e 299 310
e 299 311
e 299 312
e 299 313
e 299 314
e 299 315
e 299 316
e 299 317
e 299 318
e 299 319
e 299 320
e 299 321
e 299 322
e 299 323
e 299 324
e 299 325
e 299 326
e 299 514
e 299 597
e 299 510
e 300 515
e 300 516
e 301 515
e 301 516
e 302 442
e 302 441
e 302 443
e 302 604
e 303 484
e 303 515
e 303 516
e 304 515
e 304 516
e 305 515
e 305 516
e 306 515
e 306 516
e 307 515
e 307 516
e 308 515
e 308 516
e 309 515
e 309 516
e 311 515
e 311 516
e 312 515
e 312 516
e 313 515
e 313 516
e 315 515
e 316 476
e 316 515
e 316 516
e 317 525
e 319 515
e 319 516
e 321 441
e 321 442
e 321 443
e 321 603
e 321 509
e 322 515
e 322 516
e 323 588
e 323 589
e 324 326
e 324 515
e 324 516
e 325 515
e 326 515
e 326 516
e 327 515
e 327 516
e 328 515
e 328 516
e 329 579
e 330 331
e 330 510
e 331 510
e 333 571
e 333 572
e 334 336
e 334 598
e 337 489
e 340 341
e 340 594
e 344 381
e 345 414
e 345 560
e 345 561
e 345 562
e 345 538
e 346 489
e 346 585
e 348 356
e 348 360
e 348 357
e 348 359
e 348 586
e 353 489
e 353 547
e 353 585
e 354 586
e 355 356
e 355 357
e 355 358
e 355 359
e 355 529
e 355 586
e 356 586
e 357 461
e 358 381
e 358 403
e 358 423
e 358 436
e 358 394
e 358 369
e 360 586
e 361 362
e 361 363
e 361 544
e 362 415
e 362 550
e 362 565
e 362 546
e 363 395
e 363 554
e 364 415
e 364 550
e 364 552
e 364 565
e 365 415
e 365 550
e 365 564
e 365 565
e 365 568
e 365 553
e 365 554
e 365 556
e 366 573
e 366 594
e 368 587
e 370 403
e 370 423
e 370 436
e 370 426
e 370 427
e 370 428
e 370 444
e 370 429
e 370 430
e 370 431
e 370 417
e 370 432
e 370 433
e 370 434
e 370 435
e 371 447
e 371 446
e 371 445
e 371 448
e 371 451
e 371 544
e 371 545
e 371 546
e 372 544
e 372 545
e 372 546
e 374 418
e 374 546
e 375 544
e 375 545
e 375 546
e 378 546
e 379 447
e 379 446
e 379 450
e 379 449
e 379 445
e 379 451
e 379 448
e 379 452
e 379 544
e 379 545
e 379 546
e 381 382
e 381 383
e 381 384
e 381 385
e 381 386
e 381 387
e 381 388
e 381 601
e 382 601
e 383 493
e 388 393
e 389 603
e 389 604
e 389 509
e 390 541
e 390 573
e 391 541
e 391 576
e 391 509
e 392 393
e 392 561
e 392 562
e 392 538
e 393 541
e 393 575
e 393 576
e 393 561
e 393 562
e 393 563
e 393 538
e 393 509
e 394 426
e 394 427
e 394 428
e 394 429
e 394 430
e 394 433
e 394 432
e 394 431
e 394 434
e 394 435
e 394 417
e 394 529
e 395 396
e 397 398
e 402 403
e 402 544
e 403 417
e 403 559
e 403 558
e 404 544
e 404 545
e 404 546
e 407 544
e 407 545
e 407 546
e 415 422
e 415 544
e 415 545
e 415 546
e 416 554
e 421 517
e 421 561
e 421 562
e 421 563
e 421 538
e 423 424
e 423 425
e 423 426
e 423 427
e 423 428
e 423 429
e 423 430
e 423 431
e 423 432
e 423 433
e 423 434
e 423 435
e 423 558
e 424 436
e 424 458
e 424 558
e 426 436
e 427 436
e 428 436
e 429 436
e 430 436
e 431 436
e 433 436
e 434 436
e 435 436
e 436 437
e 436 438
e 436 439
e 437 558
e 438 558
e 442 603
e 442 604
e 442 509
e 443 603
e 447 454
e 447 455
e 452 501
e 452 546
e 456 590
e 459 511
e 460 559
e 460 537
e 461 586
e 462 591
e 463 531
e 463 548
e 463 549
e 464 531
e 464 548
e 464 549
e 465 548
e 465 549
e 466 576
e 468 594
e 468 587
e 469 470
e 469 531
e 469 548
e 469 549
e 475 586
e 477 544
e 477 545
e 477 546
e 478 570
e 479 574
e 480 554
e 480 555
e 481 532
e 482 585
e 483 544
e 483 545
e 483 546
e 485 541
e 486 571
e 486 572
e 490 548
e 493 601
e 494 531
e 494 548
e 494 549
e 495 559
e 495 537
e 498 550
e 498 552
e 498 565
e 498 568
e 499 559
e 499 537
e 500 561
e 503 603
e 503 604
e 503 509
e 505 553
e 505 555
e 506 555
e 507 508
e 507 509
e 507 510
e 508 511
e 508 531
e 508 548
e 508 512
e 509 535
e 510 515
e 510 516
e 511 512
e 511 513
e 512 586
e 513 531
e 513 548
e 514 515
e 514 516
e 515 558
e 515 599
e 516 599
e 518 544
e 518 545
e 518 546
e 519 541
e 519 573
e 520 521
e 520 559
e 521 537
e 523 571
e 523 572
e 524 554
e 526 576
e 527 554
e 528 529
e 531 532
e 532 548
e 532 549
e 533 554
e 534 548
e 536 537
e 536 538
e 537 560
e 538 559
e 539 590
e 539 586
e 540 541
e 543 544
e 543 545
e 543 546
e 544 569
e 544 592
e 544 600
e 545 569
e 545 592
e 545 600
e 546 569
e 546 593
e 546 600
e 550 551
e 551 552
e 551 564
e 551 565
e 551 573
e 551 592
e 551 558
e 552 553
e 552 554
e 552 555
e 552 556
e 553 564
e 553 565
e 553 573
e 553 592
e 553 558
e 554 564
e 554 565
e 554 573
e 554 592
e 554 558
e 555 564
e 555 565
e 555 567
e 555 568
e 555 573
e 555 592
e 555 558
e 556 564
e 556 565
e 556 573
e 556 592
e 556 558
e 557 558
e 559 560
e 559 561
e 559 562
e 559 563
e 562 576
e 565 566
e 566 574
e 566 581
e 577 578
e 577 579
e 578 580
e 579 580
e 581 582
e 585 586
e 585 587
l 17
t 145 285
